(set-logic QF_NRA)
(declare-fun i_0 () Real)
(declare-fun i_1 () Real)
(declare-fun i_2 () Real)
(declare-fun s_0 () Real)
(declare-fun s_1 () Real)
(declare-fun s_2 () Real)
(declare-fun beta_0 () Real)
(declare-fun gamma () Real)
(declare-fun delta () Real)
(declare-fun n () Real)
(declare-fun scale_1 () Real)
(declare-fun scale_2 () Real)
(declare-fun r_n_1 () Real)
(declare-fun r_n_2 () Real)
(declare-fun i_n_1 () Real)
(declare-fun i_n_2 () Real)
(declare-fun s_n_1 () Real)
(declare-fun s_n_2 () Real)
(declare-fun r_0 () Real)
(declare-fun r_1 () Real)
(declare-fun r_2 () Real)
(assert (let ((.def_0 (* n 0.1))) (let ((.def_1 (< i_1 .def_0))) (let ((.def_2 (< i_0 .def_0))) (let ((.def_3 (and .def_2 .def_1))) (let ((.def_4 (<= 0.0 i_2))) (let ((.def_5 (<= i_2 n))) (let ((.def_6 (<= 0.0 s_2))) (let ((.def_7 (<= s_2 n))) (let ((.def_8 (<= 0.0 r_2))) (let ((.def_9 (<= r_2 n))) (let ((.def_10 (* r_n_2 scale_2))) (let ((.def_11 (= r_2 .def_10))) (let ((.def_12 (* i_n_2 scale_2))) (let ((.def_13 (= i_2 .def_12))) (let ((.def_14 (* s_n_2 scale_2))) (let ((.def_15 (= s_2 .def_14))) (let ((.def_16 (and .def_15 .def_13 .def_11 .def_9 .def_8 .def_7 .def_6 .def_5 .def_4))) (let ((.def_17 (<= 0.0 scale_2))) (let ((.def_18 (<= scale_2 1.0))) (let ((.def_19 (+ s_n_2 i_n_2))) (let ((.def_20 (+ .def_19 r_n_2))) (let ((.def_21 (/ n .def_20))) (let ((.def_22 (= scale_2 .def_21))) (let ((.def_23 (and .def_22 .def_18 .def_17))) (let ((.def_24 (<= 0.0 i_n_2))) (let ((.def_25 (<= i_n_2 n))) (let ((.def_26 (<= 0.0 s_n_2))) (let ((.def_27 (<= s_n_2 n))) (let ((.def_28 (<= 0.0 r_n_2))) (let ((.def_29 (<= r_n_2 n))) (let ((.def_30 (* gamma i_1))) (let ((.def_31 (* beta_0 s_1))) (let ((.def_32 (* .def_31 i_1))) (let ((.def_33 (- .def_32 .def_30))) (let ((.def_34 (+ .def_33 i_1))) (let ((.def_35 (= i_n_2 .def_34))) (let ((.def_36 (* beta_0 (- 1.0)))) (let ((.def_37 (* .def_36 s_1))) (let ((.def_38 (* .def_37 i_1))) (let ((.def_39 (+ .def_38 s_1))) (let ((.def_40 (= s_n_2 .def_39))) (let ((.def_41 (+ .def_30 r_1))) (let ((.def_42 (= r_n_2 .def_41))) (let ((.def_43 (and .def_42 .def_40 .def_35 .def_29 .def_28 .def_27 .def_26 .def_25 .def_24))) (let ((.def_44 (and .def_43 .def_23 .def_16))) (let ((.def_45 (<= 0.0 i_1))) (let ((.def_46 (<= i_1 n))) (let ((.def_47 (<= 0.0 s_1))) (let ((.def_48 (<= s_1 n))) (let ((.def_49 (<= 0.0 r_1))) (let ((.def_50 (<= r_1 n))) (let ((.def_51 (* r_n_1 scale_1))) (let ((.def_52 (= r_1 .def_51))) (let ((.def_53 (* i_n_1 scale_1))) (let ((.def_54 (= i_1 .def_53))) (let ((.def_55 (* s_n_1 scale_1))) (let ((.def_56 (= s_1 .def_55))) (let ((.def_57 (and .def_56 .def_54 .def_52 .def_50 .def_49 .def_48 .def_47 .def_46 .def_45))) (let ((.def_58 (<= 0.0 scale_1))) (let ((.def_59 (<= scale_1 1.0))) (let ((.def_60 (+ s_n_1 i_n_1))) (let ((.def_61 (+ .def_60 r_n_1))) (let ((.def_62 (/ n .def_61))) (let ((.def_63 (= scale_1 .def_62))) (let ((.def_64 (and .def_63 .def_59 .def_58))) (let ((.def_65 (<= 0.0 i_n_1))) (let ((.def_66 (<= i_n_1 n))) (let ((.def_67 (<= 0.0 s_n_1))) (let ((.def_68 (<= s_n_1 n))) (let ((.def_69 (<= 0.0 r_n_1))) (let ((.def_70 (<= r_n_1 n))) (let ((.def_71 (* gamma i_0))) (let ((.def_72 (* beta_0 s_0))) (let ((.def_73 (* .def_72 i_0))) (let ((.def_74 (- .def_73 .def_71))) (let ((.def_75 (+ .def_74 i_0))) (let ((.def_76 (= i_n_1 .def_75))) (let ((.def_77 (* .def_36 s_0))) (let ((.def_78 (* .def_77 i_0))) (let ((.def_79 (+ .def_78 s_0))) (let ((.def_80 (= s_n_1 .def_79))) (let ((.def_81 (+ .def_71 r_0))) (let ((.def_82 (= r_n_1 .def_81))) (let ((.def_83 (and .def_82 .def_80 .def_76 .def_70 .def_69 .def_68 .def_67 .def_66 .def_65))) (let ((.def_84 (and .def_83 .def_64 .def_57))) (let ((.def_85 (and .def_84 .def_44))) (let ((.def_86 (+ s_0 i_0))) (let ((.def_87 (+ .def_86 r_0))) (let ((.def_88 (= n .def_87))) (let ((.def_89 (= r_0 1.0))) (let ((.def_90 (= i_0 1.0))) (let ((.def_91 (= s_0 1000.0))) (let ((.def_92 (and .def_91 .def_90 .def_89 .def_88))) (let ((.def_93 (= delta 0.0))) (let ((.def_94 (= gamma 0.07142857142857142))) (let ((.def_95 (and .def_94 .def_93))) (let ((.def_96 (and .def_95 .def_92 .def_85 .def_3))) .def_96))))))))))))))))))))))))))))))))))))))))))))))))))))))))))))))))))))))))))))))))))))))))))))))))))
(check-sat)
